37 500
4 193
11 147
11 102
3 144
11 144
9 181
7 116
9 114
2 124
8 116
11 124
8 19
8 172
10 193
10 123
6 111
8 102
7 169
9 105
4 169
8 111
2 191
6 105
3 172
4 177
10 181
9 178
2 114
11 153
8 177
6 178
10 104
9 153
7 191
8 123
7 104
11 147
